NAME: instance_1247
TYPE: TSP
DIMENSION: 20
EDGE_WEIGHT_TYPE: EUC_2D
NODE_COORD_SECTION
0 97.68 43.35
1 0.80 59.72
2 57.52 33.56
3 44.27 48.97
4 57.01 29.24
5 40.19 5.14
6 95.52 19.64
7 62.20 61.27
8 13.97 47.25
9 43.13 52.92
10 71.15 11.29
11 82.33 27.45
12 83.20 4.24
13 21.29 30.17
14 23.32 4.01
15 70.81 70.38
16 69.30 94.12
17 21.37 91.91
18 94.89 32.90
19 47.27 83.39
EOF
